// FEASIBLE
// COST 3075
nNurses=3075;
minHours=1;
maxPresence=12;
maxHours=10;
maxConsec=6;
hoursDay=24;
demand=[1025 1021 1012 1015 1028 1023 1022 1017 1016 1024 1021 1011 1026 1018 1016 1011 1013 1023 1016 1012 1009 1012 1028 1020];
